(set-info :origin "SVCOMP13 benchmarks generated by Arie Gurfinkel")
(set-info :status sat)
(set-logic HORN)
(declare-fun cp-rel-entry () Bool)
(declare-fun cp-rel-bb2.i.i25.i.i () Bool)
(declare-fun cp-rel-bb1.i.i (Real Real Real) Bool)
(assert |cp-rel-entry|)
(assert (forall ((?A Real) (?B Real) (?C Real) (?D Bool) )(let (($x387275 (and |cp-rel-entry| (<= ?C 1.0) (>= ?B 0.0) (<= ?B 0.0) (>= ?A 0.0) (<= ?A 0.0) (= ?D true) (>= ?C 1.0))))
(=> $x387275 (|cp-rel-bb1.i.i| ?A ?B ?C))))
)
(assert (forall ((?A Real) (?B Real) (?C Real) (?D Real) (?E Real) (?F Real) (?G Bool) (?H Bool) (?I Bool) (?J Bool) (?K Bool) (?L Bool) (?M Real) (?N Real) (?O Bool) (?P Bool) (?Q Bool) (?R Bool) (?S Bool) (?T Bool) (?U Real) (?V Real) (?W Bool) (?X Bool) (?Y Bool) (?Z Bool) (?A1 Bool) (?B1 Bool) (?C1 Bool) (?D1 Bool) (?E1 Bool) (?F1 Bool) (?G1 Bool) (?H1 Real) (?I1 Real) (?J1 Real) (?K1 Bool) (?L1 Real) (?M1 Bool) (?N1 Bool) (?O1 Real) (?P1 Bool) (?Q1 Real) (?R1 Real) (?S1 Bool) (?T1 Bool) (?U1 Bool) (?V1 Real) (?W1 Bool) (?X1 Bool) (?Y1 Bool) (?Z1 Bool) )(let (($x114915 (|cp-rel-bb1.i.i| ?D ?E ?F)))
(let (($x355908 (= ?N1 (and ?Z ?Z1))))
(let (($x501976 (or (not ?G) (and ?H ?I (not ?J)))))
(let (($x112218 (or (not ?G) ?I)))
(let (($x213857 (not ?K)))
(let (($x256357 (or $x213857 (and ?G ?L (<= ?M ?N) (>= ?M ?N)) (and ?H ?O ?J (<= ?M ?C) (>= ?M ?C)))))
(let (($x586757 (or $x213857 (and ?L (not ?O)) (and ?O (not ?L)))))
(let (($x170348 (or (not ?P) (and ?K ?Q (not ?R)))))
(let (($x200950 (or (not ?P) ?Q)))
(let (($x487873 (not ?S)))
(let (($x379498 (or $x487873 (and ?P ?T (<= ?U ?V) (>= ?U ?V)) (and ?K ?W ?R (<= ?U ?B) (>= ?U ?B)))))
(let (($x696002 (or $x487873 (and ?T (not ?W)) (and ?W (not ?T)))))
(let (($x59805 (or (not ?X) (and ?S ?Y ?Z))))
(let (($x901674 (or (not ?X) ?Y)))
(let (($x859110 (or (not ?A1) (and ?S ?B1 (not ?Z)))))
(let (($x519970 (or (not ?A1) ?B1)))
(let (($x213082 (or (not ?C1) (and ?A1 ?D1 ?E1))))
(let (($x490880 (or (not ?C1) ?D1)))
(let (($x486329 (>= ?H1 ?L1)))
(let (($x434856 (<= ?H1 ?L1)))
(let (($x19417 (and ?A1 ?M1 (not ?E1) $x434856 $x486329 (<= ?I1 0.0) (>= ?I1 0.0))))
(let (($x376271 (and ?X ?G1 (<= ?H1 ?M) (>= ?H1 ?M) (<= ?I1 ?J1) (>= ?I1 ?J1))))
(let (($x172291 (not ?F1)))
(let (($x261815 (or $x172291 $x376271 (and ?C1 ?K1 $x434856 $x486329 (<= ?I1 ?A) (>= ?I1 ?A)) $x19417)))
(let (($x916006 (or $x172291 (and ?G1 (not ?K1) (not ?M1)) (and ?K1 (not ?G1) (not ?M1)) (and ?M1 (not ?G1) (not ?K1)))))
(let (($x507711 (= ?F1 true)))
(let (($x366123 (= ?J (= ?O1 0.0))))
(let (($x11304 (= ?Q1 (ite ?P1 1.0 0.0))))
(let (($x381025 (= ?R (= ?R1 0.0))))
(let (($x873913 (= ?V (ite ?S1 1.0 0.0))))
(let (($x338278 (= ?T1 (not (<= ?M 1.0)))))
(let (($x233770 (= ?U1 (not (<= ?M 0.0)))))
(let (($x501616 (= ?V1 (+ (~ 1.0) ?M))))
(let (($x927514 (= ?L1 (ite ?U1 ?V1 ?M))))
(let (($x291974 (= ?E1 (= ?U 0.0))))
(let (($x26329 (= ?W1 (= ?H1 2.0))))
(let (($x264268 (= ?X1 (= ?I1 0.0))))
(let (($x621567 (= ?Y1 (or ?X1 ?W1))))
(let (($x368336 (= ?Z1 (not ?Y1))))
(let (($x30142 (and (|cp-rel-bb1.i.i| ?A ?B ?C) $x368336 $x621567 $x264268 $x26329 $x291974 $x927514 $x501616 $x233770 (= ?J1 (ite ?T1 1.0 ?A)) $x338278 (= ?Z (= ?A 0.0)) $x873913 (= ?S1 (= ?B 0.0)) $x381025 (= ?N (+ ?Q1 ?C)) $x11304 (= ?P1 (not (<= 2.0 ?C))) $x366123 (>= ?F ?H1) (<= ?F ?H1) (>= ?E ?U) (<= ?E ?U) (>= ?D ?I1) (<= ?D ?I1) (not (= ?N1 true)) $x507711 $x916006 $x261815 $x490880 $x213082 $x519970 $x859110 $x901674 $x59805 $x696002 $x379498 $x200950 $x170348 $x586757 $x256357 $x112218 $x501976 $x355908)))
(=> $x30142 $x114915))))))))))))))))))))))))))))))))))))))))))
)
(assert (forall ((?A Real) (?B Real) (?C Real) (?D Bool) (?E Bool) (?F Bool) (?G Bool) (?H Bool) (?I Bool) (?J Real) (?K Real) (?L Bool) (?M Bool) (?N Bool) (?O Bool) (?P Bool) (?Q Bool) (?R Real) (?S Real) (?T Bool) (?U Bool) (?V Bool) (?W Bool) (?X Bool) (?Y Bool) (?Z Bool) (?A1 Bool) (?B1 Bool) (?C1 Bool) (?D1 Bool) (?E1 Real) (?F1 Real) (?G1 Real) (?H1 Bool) (?I1 Real) (?J1 Bool) (?K1 Bool) (?L1 Real) (?M1 Bool) (?N1 Real) (?O1 Real) (?P1 Bool) (?Q1 Bool) (?R1 Bool) (?S1 Real) (?T1 Bool) (?U1 Bool) (?V1 Bool) (?W1 Bool) )(let (($x355908 (= ?K1 (and ?W ?W1))))
(let (($x501976 (or (not ?D) (and ?E ?F (not ?G)))))
(let (($x112218 (or (not ?D) ?F)))
(let (($x213857 (not ?H)))
(let (($x389033 (or $x213857 (and ?D ?I (<= ?J ?K) (>= ?J ?K)) (and ?E ?L ?G (<= ?J ?C) (>= ?J ?C)))))
(let (($x586757 (or $x213857 (and ?I (not ?L)) (and ?L (not ?I)))))
(let (($x170348 (or (not ?M) (and ?H ?N (not ?O)))))
(let (($x200950 (or (not ?M) ?N)))
(let (($x487873 (not ?P)))
(let (($x438209 (or $x487873 (and ?M ?Q (<= ?R ?S) (>= ?R ?S)) (and ?H ?T ?O (<= ?R ?B) (>= ?R ?B)))))
(let (($x696002 (or $x487873 (and ?Q (not ?T)) (and ?T (not ?Q)))))
(let (($x59805 (or (not ?U) (and ?P ?V ?W))))
(let (($x901674 (or (not ?U) ?V)))
(let (($x859110 (or (not ?X) (and ?P ?Y (not ?W)))))
(let (($x519970 (or (not ?X) ?Y)))
(let (($x213082 (or (not ?Z) (and ?X ?A1 ?B1))))
(let (($x490880 (or (not ?Z) ?A1)))
(let (($x486329 (>= ?E1 ?I1)))
(let (($x434856 (<= ?E1 ?I1)))
(let (($x19417 (and ?X ?J1 (not ?B1) $x434856 $x486329 (<= ?F1 0.0) (>= ?F1 0.0))))
(let (($x376271 (and ?U ?D1 (<= ?E1 ?J) (>= ?E1 ?J) (<= ?F1 ?G1) (>= ?F1 ?G1))))
(let (($x172291 (not ?C1)))
(let (($x358879 (or $x172291 $x376271 (and ?Z ?H1 $x434856 $x486329 (<= ?F1 ?A) (>= ?F1 ?A)) $x19417)))
(let (($x916006 (or $x172291 (and ?D1 (not ?H1) (not ?J1)) (and ?H1 (not ?D1) (not ?J1)) (and ?J1 (not ?D1) (not ?H1)))))
(let (($x507711 (= ?C1 true)))
(let (($x621721 (= ?K1 true)))
(let (($x366123 (= ?G (= ?L1 0.0))))
(let (($x11304 (= ?N1 (ite ?M1 1.0 0.0))))
(let (($x381025 (= ?O (= ?O1 0.0))))
(let (($x873913 (= ?S (ite ?P1 1.0 0.0))))
(let (($x338278 (= ?Q1 (not (<= ?J 1.0)))))
(let (($x233770 (= ?R1 (not (<= ?J 0.0)))))
(let (($x501616 (= ?S1 (+ (~ 1.0) ?J))))
(let (($x927514 (= ?I1 (ite ?R1 ?S1 ?J))))
(let (($x291974 (= ?B1 (= ?R 0.0))))
(let (($x26329 (= ?T1 (= ?E1 2.0))))
(let (($x264268 (= ?U1 (= ?F1 0.0))))
(let (($x621567 (= ?V1 (or ?U1 ?T1))))
(let (($x368336 (= ?W1 (not ?V1))))
(let (($x114915 (|cp-rel-bb1.i.i| ?A ?B ?C)))
(let (($x407988 (and $x114915 $x368336 $x621567 $x264268 $x26329 $x291974 $x927514 $x501616 $x233770 (= ?G1 (ite ?Q1 1.0 ?A)) $x338278 (= ?W (= ?A 0.0)) $x873913 (= ?P1 (= ?B 0.0)) $x381025 (= ?K (+ ?N1 ?C)) $x11304 (= ?M1 (not (<= 2.0 ?C))) $x366123 $x621721 $x507711 $x916006 $x358879 $x490880 $x213082 $x519970 $x859110 $x901674 $x59805 $x696002 $x438209 $x200950 $x170348 $x586757 $x389033 $x112218 $x501976 $x355908)))
(=> $x407988 |cp-rel-bb2.i.i25.i.i|)))))))))))))))))))))))))))))))))))))))))))
)
(assert (not cp-rel-bb2.i.i25.i.i))
(check-sat)
